40
     7    70    52    52    86    66    70    60    65    70    27    41    42    88    21    15    40    80    28     7    13    58     4    43    41    89    80    54    34    92    66    72    29    40    53    35    91    58     6    82
     5    10     1     2     2     8     8     5     6     4     8     4     1     1     6     5    10     7     2     7     5     8     7     7     6     2     6     6     1     8     8     5     7     6     6     4     8     6     5     7
  1471  1794  1514  1473  1702  1583  1640  1683  1491  1519  1702  1527  1701  1675  1421  1718  1639  1742  1749  1653  1441  1722  1691  1612  1424  1615  1809  1533  1648  1702  1450  1614  1675  1435  1441  1485  1746  1732  1727  1612
